c FILE /home/rafael/Documents/HappySet/MIHS/inputs/happygen/output/graph_d_regular_k10_p0.4_v100_20241127_084119.txt
c SOURCE This is a d-regular graph formed for the happy graph colouring problem.
c DESCRIPTION It was generated using the problem generator of Rhyd Lewis
c
c GRAPH STATS
c Seed                             = 1467693494
c Number of Nodes                  = 100
c Number of colours k              = 10
c Number of pre-assignments        = 40
c Degree of all vertices           = 6
c Density                          = 0.0606061
c 
c The degrees of nodes 1 to 100, respectively, are as follows 
c [6, 6, 6, 6, 6, 6, 6, 6, 6, 6, 6, 6, 6, 6, 6, 6, 6, 6, 6, 6, 6, 6, 6, 6, 6, 6, 
c  6, 6, 6, 6, 6, 6, 6, 6, 6, 6, 6, 6, 6, 6, 6, 6, 6, 6, 6, 6, 6, 6, 6, 6, 6, 
c  6, 6, 6, 6, 6, 6, 6, 6, 6, 6, 6, 6, 6, 6, 6, 6, 6, 6, 6, 6, 6, 6, 6, 6, 6, 
c  6, 6, 6, 6, 6, 6, 6, 6, 6, 6, 6, 6, 6, 6, 6, 6, 6, 6, 6, 6, 6, 6, 6, 6] 
c  
p edge 100 300 10
e 1 32
e 1 35
e 1 58
e 1 59
e 1 66
e 1 74
e 2 4
e 2 6
e 2 19
e 2 46
e 2 70
e 2 93
e 3 9
e 3 14
e 3 33
e 3 55
e 3 72
e 3 73
e 4 43
e 4 66
e 4 79
e 4 89
e 4 91
e 5 10
e 5 17
e 5 61
e 5 87
e 5 93
e 5 100
e 6 30
e 6 51
e 6 65
e 6 68
e 6 91
e 7 30
e 7 55
e 7 67
e 7 77
e 7 80
e 7 96
e 8 26
e 8 29
e 8 33
e 8 49
e 8 70
e 8 72
e 9 21
e 9 23
e 9 38
e 9 46
e 9 94
e 10 21
e 10 25
e 10 50
e 10 65
e 10 68
e 11 15
e 11 37
e 11 53
e 11 64
e 11 69
e 11 87
e 12 28
e 12 50
e 12 78
e 12 83
e 12 84
e 12 98
e 13 15
e 13 22
e 13 34
e 13 42
e 13 79
e 13 83
e 14 20
e 14 30
e 14 32
e 14 44
e 14 77
e 15 19
e 15 33
e 15 67
e 15 71
e 16 46
e 16 62
e 16 74
e 16 82
e 16 83
e 16 95
e 17 29
e 17 50
e 17 69
e 17 80
e 17 88
e 18 42
e 18 49
e 18 56
e 18 60
e 18 94
e 18 97
e 19 41
e 19 75
e 19 81
e 19 93
e 20 44
e 20 57
e 20 63
e 20 88
e 20 100
e 21 41
e 21 60
e 21 94
e 21 98
e 22 41
e 22 58
e 22 76
e 22 78
e 22 89
e 23 39
e 23 51
e 23 80
e 23 85
e 23 90
e 24 32
e 24 33
e 24 40
e 24 87
e 24 96
e 24 99
e 25 46
e 25 55
e 25 57
e 25 64
e 25 70
e 26 30
e 26 55
e 26 72
e 26 89
e 26 100
e 27 36
e 27 40
e 27 53
e 27 55
e 27 75
e 27 87
e 28 36
e 28 37
e 28 41
e 28 73
e 28 78
e 29 42
e 29 45
e 29 56
e 29 58
e 30 60
e 30 70
e 31 47
e 31 53
e 31 54
e 31 63
e 31 66
e 31 86
e 32 67
e 32 69
e 32 77
e 33 43
e 33 59
e 34 47
e 34 77
e 34 95
e 34 96
e 34 97
e 35 37
e 35 38
e 35 52
e 35 71
e 35 74
e 36 39
e 36 44
e 36 86
e 36 99
e 37 38
e 37 47
e 37 100
e 38 64
e 38 89
e 38 92
e 39 48
e 39 67
e 39 83
e 39 85
e 40 57
e 40 84
e 40 88
e 40 92
e 41 47
e 41 95
e 42 63
e 42 78
e 42 86
e 43 48
e 43 64
e 43 66
e 43 82
e 44 50
e 44 78
e 44 84
e 45 48
e 45 49
e 45 58
e 45 85
e 45 91
e 46 77
e 46 83
e 47 93
e 47 100
e 48 59
e 48 84
e 48 88
e 49 50
e 49 82
e 49 95
e 50 52
e 51 66
e 51 71
e 51 80
e 51 90
e 52 59
e 52 62
e 52 70
e 52 91
e 53 81
e 53 86
e 53 96
e 54 58
e 54 62
e 54 77
e 54 96
e 54 98
e 55 97
e 56 59
e 56 76
e 56 81
e 56 100
e 57 75
e 57 85
e 57 96
e 58 62
e 59 68
e 60 62
e 60 76
e 60 93
e 61 71
e 61 73
e 61 74
e 61 84
e 61 93
e 62 85
e 63 69
e 63 70
e 63 91
e 64 67
e 64 92
e 65 66
e 65 69
e 65 95
e 65 99
e 67 68
e 68 80
e 68 92
e 69 98
e 71 72
e 71 91
e 72 75
e 72 87
e 73 88
e 73 92
e 73 99
e 74 81
e 74 82
e 75 82
e 75 95
e 76 79
e 76 86
e 76 99
e 78 98
e 79 86
e 79 92
e 79 99
e 80 82
e 81 89
e 81 94
e 83 97
e 84 90
e 85 90
e 87 88
e 89 98
e 90 94
e 90 97
e 94 97
n 4 9
n 6 2
n 7 10
n 10 2
n 13 3
n 14 1
n 23 3
n 26 9
n 27 10
n 29 6
n 31 5
n 33 6
n 37 5
n 40 10
n 41 7
n 44 1
n 45 6
n 46 1
n 48 6
n 49 6
n 57 10
n 59 6
n 60 3
n 62 3
n 64 8
n 69 9
n 70 1
n 71 7
n 73 7
n 74 4
n 75 10
n 78 1
n 86 5
n 87 10
n 89 9
n 93 3
n 94 1
n 96 10
n 97 1
n 99 7
